c "973548.clq"
p edge 205 3024
e 1 17
e 1 18
e 1 19
e 1 20
e 1 21
e 1 22
e 1 24
e 1 25
e 1 26
e 1 27
e 1 29
e 1 31
e 1 33
e 1 37
e 1 38
e 1 41
e 1 43
e 1 44
e 1 46
e 1 48
e 1 50
e 1 53
e 1 60
e 1 63
e 1 64
e 1 65
e 1 76
e 1 81
e 1 84
e 1 86
e 1 89
e 1 94
e 1 96
e 1 102
e 1 105
e 1 116
e 1 121
e 1 123
e 1 129
e 1 133
e 1 171
e 1 192
e 2 17
e 2 18
e 2 19
e 2 20
e 2 22
e 2 24
e 2 28
e 2 29
e 2 30
e 2 32
e 2 60
e 2 70
e 2 82
e 2 95
e 2 96
e 2 98
e 2 111
e 2 112
e 2 146
e 2 158
e 2 189
e 2 195
e 2 197
e 2 201
e 2 205
e 3 17
e 3 18
e 3 19
e 3 20
e 3 23
e 3 30
e 3 34
e 3 41
e 3 42
e 3 50
e 3 53
e 3 61
e 3 68
e 3 83
e 3 89
e 3 94
e 3 102
e 3 150
e 3 158
e 3 198
e 3 202
e 4 17
e 4 18
e 4 20
e 4 21
e 4 23
e 4 24
e 4 25
e 4 26
e 4 30
e 4 31
e 4 33
e 4 34
e 4 35
e 4 36
e 4 39
e 4 41
e 4 42
e 4 47
e 4 49
e 4 50
e 4 51
e 4 54
e 4 62
e 4 63
e 4 75
e 4 76
e 4 85
e 4 88
e 4 89
e 4 92
e 4 93
e 4 100
e 4 109
e 4 110
e 4 116
e 4 119
e 4 122
e 4 133
e 4 134
e 4 138
e 4 156
e 4 158
e 4 160
e 4 164
e 4 171
e 4 178
e 4 180
e 4 196
e 4 198
e 4 204
e 4 205
e 5 17
e 5 18
e 5 19
e 5 21
e 5 23
e 5 29
e 5 30
e 5 36
e 5 39
e 5 56
e 5 76
e 5 80
e 5 89
e 6 17
e 6 18
e 6 19
e 6 20
e 6 21
e 6 22
e 6 24
e 6 27
e 6 29
e 6 30
e 6 31
e 6 35
e 6 38
e 6 40
e 6 41
e 6 45
e 6 48
e 6 58
e 6 61
e 6 64
e 6 69
e 6 73
e 6 75
e 6 82
e 6 84
e 6 88
e 6 95
e 6 102
e 6 104
e 6 107
e 6 109
e 6 110
e 6 121
e 6 123
e 6 126
e 6 129
e 6 142
e 6 148
e 6 168
e 6 178
e 6 182
e 6 183
e 6 187
e 6 194
e 6 197
e 6 203
e 7 17
e 7 23
e 7 27
e 7 28
e 7 29
e 7 32
e 7 35
e 7 38
e 7 46
e 7 50
e 7 58
e 7 60
e 7 62
e 7 63
e 7 67
e 7 68
e 7 75
e 7 81
e 7 91
e 7 154
e 7 190
e 7 194
e 8 17
e 8 18
e 8 19
e 8 20
e 8 21
e 8 23
e 8 24
e 8 26
e 8 27
e 8 28
e 8 30
e 8 31
e 8 32
e 8 34
e 8 35
e 8 41
e 8 43
e 8 50
e 8 52
e 8 53
e 8 70
e 8 72
e 8 77
e 8 81
e 8 127
e 8 131
e 8 135
e 8 140
e 8 144
e 8 150
e 8 180
e 8 185
e 8 191
e 8 197
e 9 17
e 9 18
e 9 19
e 9 20
e 9 22
e 9 23
e 9 25
e 9 27
e 9 30
e 9 34
e 9 35
e 9 38
e 9 40
e 9 47
e 9 48
e 9 59
e 9 60
e 9 67
e 9 78
e 9 80
e 9 93
e 9 113
e 9 119
e 9 129
e 9 134
e 9 154
e 9 160
e 9 172
e 9 173
e 10 17
e 10 18
e 10 19
e 10 20
e 10 21
e 10 22
e 10 25
e 10 26
e 10 28
e 10 33
e 10 34
e 10 42
e 10 49
e 10 51
e 10 56
e 10 73
e 10 77
e 10 81
e 10 87
e 10 97
e 10 102
e 10 103
e 10 115
e 10 118
e 10 161
e 10 203
e 11 17
e 11 18
e 11 19
e 11 20
e 11 21
e 11 22
e 11 23
e 11 25
e 11 26
e 11 27
e 11 29
e 11 32
e 11 35
e 11 36
e 11 39
e 11 40
e 11 42
e 11 54
e 11 55
e 11 67
e 11 78
e 11 80
e 11 98
e 11 113
e 11 130
e 11 136
e 11 143
e 11 150
e 11 156
e 11 158
e 11 162
e 11 167
e 11 170
e 11 174
e 11 186
e 11 196
e 12 17
e 12 18
e 12 19
e 12 20
e 12 21
e 12 22
e 12 23
e 12 24
e 12 25
e 12 26
e 12 27
e 12 28
e 12 32
e 12 34
e 12 38
e 12 40
e 12 41
e 12 47
e 12 49
e 12 52
e 12 58
e 12 60
e 12 63
e 12 77
e 12 81
e 12 86
e 12 90
e 12 93
e 12 103
e 12 104
e 12 115
e 12 118
e 12 120
e 12 123
e 12 129
e 12 136
e 12 139
e 12 140
e 12 144
e 12 145
e 12 147
e 12 153
e 12 160
e 12 164
e 12 165
e 12 171
e 12 173
e 12 176
e 12 182
e 12 186
e 12 188
e 12 191
e 13 17
e 13 18
e 13 19
e 13 20
e 13 21
e 13 22
e 13 23
e 13 24
e 13 25
e 13 26
e 13 27
e 13 32
e 13 38
e 13 39
e 13 42
e 13 50
e 13 61
e 13 64
e 13 65
e 13 68
e 13 83
e 13 100
e 13 114
e 13 117
e 13 120
e 13 130
e 13 138
e 13 141
e 13 163
e 13 195
e 13 196
e 14 17
e 14 18
e 14 19
e 14 20
e 14 21
e 14 22
e 14 24
e 14 25
e 14 26
e 14 29
e 14 30
e 14 31
e 14 33
e 14 34
e 14 40
e 14 41
e 14 44
e 14 45
e 14 49
e 14 53
e 14 56
e 14 57
e 14 59
e 14 60
e 14 64
e 14 65
e 14 67
e 14 68
e 14 71
e 14 72
e 14 74
e 14 75
e 14 77
e 14 78
e 14 82
e 14 84
e 14 94
e 14 99
e 14 105
e 14 109
e 14 110
e 14 112
e 14 114
e 14 115
e 14 116
e 14 118
e 14 120
e 14 131
e 14 135
e 14 141
e 14 168
e 14 173
e 14 176
e 14 178
e 14 184
e 15 17
e 15 18
e 15 19
e 15 21
e 15 22
e 15 23
e 15 24
e 15 27
e 15 28
e 15 33
e 15 43
e 15 44
e 15 46
e 15 48
e 15 49
e 15 57
e 15 60
e 15 64
e 15 67
e 15 73
e 15 75
e 15 76
e 15 92
e 15 102
e 15 103
e 15 124
e 15 147
e 15 155
e 15 158
e 15 160
e 15 170
e 15 179
e 15 184
e 16 17
e 16 18
e 16 19
e 16 20
e 16 21
e 16 22
e 16 25
e 16 26
e 16 31
e 16 36
e 16 38
e 16 39
e 16 40
e 16 44
e 16 45
e 16 46
e 16 49
e 16 51
e 16 56
e 16 58
e 16 59
e 16 68
e 16 70
e 16 86
e 16 87
e 16 89
e 16 90
e 16 91
e 16 93
e 16 95
e 16 104
e 16 106
e 16 124
e 16 132
e 16 136
e 16 144
e 16 155
e 16 156
e 16 161
e 16 165
e 16 167
e 16 169
e 16 177
e 16 187
e 16 189
e 16 190
e 16 202
e 17 18
e 17 19
e 17 20
e 17 21
e 17 22
e 17 23
e 17 24
e 17 25
e 17 26
e 17 27
e 17 28
e 17 29
e 17 31
e 17 32
e 17 33
e 17 34
e 17 35
e 17 36
e 17 39
e 17 41
e 17 42
e 17 43
e 17 44
e 17 45
e 17 49
e 17 50
e 17 52
e 17 55
e 17 56
e 17 57
e 17 58
e 17 59
e 17 64
e 17 72
e 17 73
e 17 76
e 17 77
e 17 79
e 17 80
e 17 81
e 17 87
e 17 89
e 17 90
e 17 92
e 17 93
e 17 96
e 17 97
e 17 99
e 17 100
e 17 109
e 17 110
e 17 112
e 17 113
e 17 115
e 17 116
e 17 119
e 17 123
e 17 124
e 17 125
e 17 127
e 17 133
e 17 137
e 17 139
e 17 150
e 17 151
e 17 154
e 17 170
e 17 179
e 17 182
e 17 183
e 17 185
e 17 187
e 17 195
e 17 196
e 17 201
e 18 19
e 18 20
e 18 21
e 18 22
e 18 23
e 18 24
e 18 25
e 18 26
e 18 27
e 18 28
e 18 29
e 18 30
e 18 31
e 18 32
e 18 33
e 18 34
e 18 35
e 18 36
e 18 37
e 18 38
e 18 40
e 18 41
e 18 42
e 18 43
e 18 44
e 18 46
e 18 48
e 18 49
e 18 51
e 18 54
e 18 57
e 18 58
e 18 59
e 18 60
e 18 63
e 18 67
e 18 68
e 18 70
e 18 71
e 18 73
e 18 87
e 18 99
e 18 105
e 18 108
e 18 110
e 18 111
e 18 112
e 18 113
e 18 115
e 18 116
e 18 117
e 18 119
e 18 120
e 18 122
e 18 123
e 18 127
e 18 129
e 18 138
e 18 139
e 18 142
e 18 145
e 18 159
e 18 162
e 18 167
e 18 168
e 18 171
e 18 174
e 18 176
e 18 178
e 18 201
e 19 20
e 19 21
e 19 22
e 19 23
e 19 24
e 19 25
e 19 26
e 19 27
e 19 28
e 19 30
e 19 31
e 19 32
e 19 33
e 19 35
e 19 36
e 19 37
e 19 38
e 19 39
e 19 40
e 19 41
e 19 42
e 19 43
e 19 44
e 19 49
e 19 50
e 19 51
e 19 53
e 19 55
e 19 57
e 19 58
e 19 61
e 19 62
e 19 63
e 19 65
e 19 66
e 19 67
e 19 69
e 19 71
e 19 72
e 19 73
e 19 74
e 19 76
e 19 81
e 19 83
e 19 85
e 19 86
e 19 87
e 19 96
e 19 98
e 19 104
e 19 105
e 19 108
e 19 109
e 19 110
e 19 111
e 19 117
e 19 121
e 19 128
e 19 131
e 19 143
e 19 144
e 19 151
e 19 154
e 19 158
e 19 162
e 19 163
e 19 167
e 19 170
e 19 174
e 19 177
e 19 183
e 19 188
e 19 190
e 19 194
e 19 197
e 19 199
e 19 200
e 19 203
e 19 205
e 20 21
e 20 22
e 20 23
e 20 24
e 20 26
e 20 27
e 20 28
e 20 29
e 20 32
e 20 33
e 20 34
e 20 35
e 20 36
e 20 37
e 20 38
e 20 41
e 20 42
e 20 44
e 20 45
e 20 46
e 20 47
e 20 50
e 20 55
e 20 57
e 20 61
e 20 62
e 20 64
e 20 65
e 20 66
e 20 67
e 20 69
e 20 74
e 20 78
e 20 80
e 20 85
e 20 87
e 20 99
e 20 108
e 20 112
e 20 113
e 20 116
e 20 120
e 20 129
e 20 130
e 20 133
e 20 135
e 20 138
e 20 145
e 20 146
e 20 148
e 20 149
e 20 150
e 20 152
e 20 153
e 20 156
e 20 162
e 20 166
e 20 170
e 20 171
e 20 175
e 20 176
e 20 177
e 20 178
e 20 183
e 20 187
e 20 188
e 20 189
e 20 190
e 20 195
e 20 197
e 21 22
e 21 23
e 21 24
e 21 25
e 21 30
e 21 31
e 21 32
e 21 33
e 21 34
e 21 36
e 21 37
e 21 38
e 21 39
e 21 44
e 21 45
e 21 47
e 21 48
e 21 49
e 21 52
e 21 53
e 21 54
e 21 55
e 21 58
e 21 60
e 21 65
e 21 71
e 21 72
e 21 75
e 21 80
e 21 82
e 21 85
e 21 87
e 21 89
e 21 90
e 21 99
e 21 106
e 21 109
e 21 115
e 21 119
e 21 120
e 21 121
e 21 122
e 21 127
e 21 131
e 21 132
e 21 133
e 21 137
e 21 138
e 21 141
e 21 143
e 21 149
e 21 152
e 21 155
e 21 163
e 21 164
e 21 166
e 21 169
e 21 174
e 21 175
e 21 181
e 21 184
e 21 190
e 21 204
e 22 23
e 22 24
e 22 25
e 22 26
e 22 28
e 22 29
e 22 31
e 22 32
e 22 35
e 22 37
e 22 39
e 22 40
e 22 41
e 22 43
e 22 44
e 22 45
e 22 46
e 22 50
e 22 63
e 22 69
e 22 75
e 22 76
e 22 84
e 22 87
e 22 88
e 22 89
e 22 90
e 22 93
e 22 95
e 22 100
e 22 101
e 22 107
e 22 109
e 22 110
e 22 114
e 22 115
e 22 123
e 22 130
e 22 139
e 22 143
e 22 149
e 22 156
e 22 157
e 22 158
e 22 162
e 22 173
e 22 175
e 22 176
e 22 180
e 22 184
e 22 186
e 22 188
e 22 203
e 23 24
e 23 25
e 23 27
e 23 28
e 23 29
e 23 30
e 23 31
e 23 34
e 23 36
e 23 37
e 23 39
e 23 40
e 23 41
e 23 42
e 23 43
e 23 46
e 23 47
e 23 48
e 23 49
e 23 51
e 23 55
e 23 59
e 23 60
e 23 61
e 23 66
e 23 67
e 23 68
e 23 74
e 23 76
e 23 78
e 23 79
e 23 80
e 23 83
e 23 94
e 23 100
e 23 101
e 23 106
e 23 120
e 23 127
e 23 132
e 23 134
e 23 137
e 23 140
e 23 142
e 23 153
e 23 160
e 23 161
e 23 167
e 23 173
e 23 177
e 23 186
e 23 193
e 23 194
e 23 195
e 23 202
e 23 204
e 24 25
e 24 26
e 24 27
e 24 28
e 24 30
e 24 33
e 24 35
e 24 36
e 24 37
e 24 38
e 24 42
e 24 43
e 24 48
e 24 51
e 24 54
e 24 56
e 24 58
e 24 61
e 24 63
e 24 67
e 24 71
e 24 79
e 24 84
e 24 86
e 24 89
e 24 90
e 24 92
e 24 98
e 24 103
e 24 105
e 24 106
e 24 109
e 24 110
e 24 113
e 24 114
e 24 128
e 24 136
e 24 138
e 24 140
e 24 143
e 24 149
e 24 155
e 24 157
e 24 161
e 24 166
e 24 170
e 24 174
e 24 179
e 24 180
e 24 182
e 24 185
e 24 189
e 24 191
e 24 192
e 24 198
e 24 203
e 25 26
e 25 27
e 25 28
e 25 29
e 25 31
e 25 32
e 25 33
e 25 35
e 25 36
e 25 39
e 25 42
e 25 43
e 25 44
e 25 45
e 25 46
e 25 47
e 25 49
e 25 50
e 25 51
e 25 54
e 25 55
e 25 56
e 25 59
e 25 60
e 25 61
e 25 62
e 25 63
e 25 64
e 25 67
e 25 68
e 25 71
e 25 72
e 25 75
e 25 77
e 25 83
e 25 84
e 25 86
e 25 88
e 25 91
e 25 96
e 25 97
e 25 98
e 25 103
e 25 104
e 25 105
e 25 109
e 25 113
e 25 114
e 25 115
e 25 117
e 25 123
e 25 124
e 25 125
e 25 128
e 25 130
e 25 137
e 25 144
e 25 151
e 25 152
e 25 155
e 25 168
e 25 170
e 25 176
e 25 177
e 25 178
e 25 183
e 25 185
e 25 191
e 25 196
e 25 197
e 25 201
e 25 203
e 26 28
e 26 29
e 26 30
e 26 31
e 26 33
e 26 34
e 26 35
e 26 36
e 26 37
e 26 40
e 26 46
e 26 48
e 26 53
e 26 54
e 26 55
e 26 65
e 26 72
e 26 81
e 26 83
e 26 90
e 26 92
e 26 93
e 26 102
e 26 103
e 26 104
e 26 122
e 26 125
e 26 129
e 26 130
e 26 138
e 26 143
e 26 147
e 26 148
e 26 150
e 26 162
e 26 164
e 26 167
e 26 169
e 26 189
e 26 191
e 26 200
e 26 205
e 27 28
e 27 29
e 27 30
e 27 32
e 27 33
e 27 34
e 27 36
e 27 37
e 27 40
e 27 45
e 27 50
e 27 62
e 27 63
e 27 64
e 27 68
e 27 69
e 27 72
e 27 74
e 27 76
e 27 87
e 27 88
e 27 95
e 27 106
e 27 111
e 27 112
e 27 117
e 27 124
e 27 125
e 27 135
e 27 139
e 27 141
e 27 146
e 27 165
e 27 178
e 27 191
e 27 201
e 28 29
e 28 31
e 28 32
e 28 33
e 28 38
e 28 41
e 28 46
e 28 47
e 28 48
e 28 51
e 28 52
e 28 53
e 28 57
e 28 59
e 28 64
e 28 65
e 28 69
e 28 76
e 28 77
e 28 78
e 28 80
e 28 83
e 28 85
e 28 97
e 28 99
e 28 109
e 28 113
e 28 114
e 28 118
e 28 127
e 28 130
e 28 143
e 28 145
e 28 146
e 28 149
e 28 158
e 28 163
e 28 168
e 28 174
e 28 177
e 29 30
e 29 33
e 29 38
e 29 39
e 29 42
e 29 43
e 29 44
e 29 45
e 29 46
e 29 49
e 29 54
e 29 59
e 29 63
e 29 66
e 29 68
e 29 78
e 29 83
e 29 84
e 29 91
e 29 92
e 29 95
e 29 96
e 29 100
e 29 103
e 29 106
e 29 108
e 29 111
e 29 114
e 29 117
e 29 124
e 29 128
e 29 133
e 29 136
e 29 138
e 29 139
e 29 147
e 29 148
e 29 150
e 29 152
e 29 153
e 29 154
e 29 169
e 29 176
e 29 177
e 29 187
e 29 192
e 29 194
e 29 201
e 30 31
e 30 32
e 30 35
e 30 36
e 30 37
e 30 50
e 30 51
e 30 58
e 30 59
e 30 61
e 30 63
e 30 64
e 30 65
e 30 66
e 30 69
e 30 70
e 30 73
e 30 74
e 30 78
e 30 83
e 30 89
e 30 91
e 30 92
e 30 95
e 30 97
e 30 102
e 30 104
e 30 106
e 30 112
e 30 114
e 30 117
e 30 119
e 30 121
e 30 123
e 30 125
e 30 127
e 30 130
e 30 143
e 30 145
e 30 157
e 30 164
e 30 165
e 30 169
e 30 177
e 30 180
e 30 181
e 30 184
e 30 189
e 30 190
e 30 192
e 30 200
e 30 201
e 31 34
e 31 37
e 31 45
e 31 46
e 31 47
e 31 48
e 31 51
e 31 52
e 31 53
e 31 57
e 31 58
e 31 59
e 31 60
e 31 65
e 31 70
e 31 73
e 31 74
e 31 89
e 31 90
e 31 91
e 31 93
e 31 99
e 31 108
e 31 120
e 31 126
e 31 130
e 31 133
e 31 140
e 31 141
e 31 146
e 31 154
e 31 177
e 31 180
e 31 186
e 31 188
e 31 192
e 31 194
e 31 198
e 31 202
e 32 34
e 32 36
e 32 37
e 32 39
e 32 40
e 32 43
e 32 45
e 32 52
e 32 54
e 32 56
e 32 60
e 32 62
e 32 63
e 32 66
e 32 68
e 32 69
e 32 70
e 32 71
e 32 75
e 32 79
e 32 88
e 32 93
e 32 97
e 32 102
e 32 103
e 32 105
e 32 111
e 32 118
e 32 122
e 32 125
e 32 126
e 32 137
e 32 140
e 32 145
e 32 172
e 32 177
e 32 182
e 32 187
e 32 194
e 32 195
e 32 202
e 32 204
e 33 35
e 33 37
e 33 38
e 33 39
e 33 42
e 33 45
e 33 46
e 33 47
e 33 48
e 33 49
e 33 50
e 33 51
e 33 52
e 33 53
e 33 55
e 33 56
e 33 59
e 33 60
e 33 61
e 33 68
e 33 69
e 33 70
e 33 71
e 33 76
e 33 77
e 33 78
e 33 80
e 33 84
e 33 87
e 33 88
e 33 91
e 33 99
e 33 100
e 33 101
e 33 102
e 33 103
e 33 110
e 33 120
e 33 123
e 33 131
e 33 134
e 33 135
e 33 136
e 33 138
e 33 141
e 33 142
e 33 143
e 33 148
e 33 153
e 33 159
e 33 163
e 33 167
e 33 172
e 33 178
e 33 179
e 33 182
e 33 185
e 33 189
e 33 196
e 33 199
e 33 200
e 33 204
e 33 205
e 34 39
e 34 40
e 34 43
e 34 44
e 34 47
e 34 48
e 34 50
e 34 52
e 34 58
e 34 76
e 34 78
e 34 86
e 34 94
e 34 98
e 34 100
e 34 108
e 34 118
e 34 119
e 34 125
e 34 128
e 34 131
e 34 133
e 34 134
e 34 136
e 34 138
e 34 141
e 34 152
e 34 169
e 34 172
e 34 179
e 34 188
e 34 191
e 34 199
e 35 37
e 35 41
e 35 43
e 35 46
e 35 51
e 35 53
e 35 54
e 35 56
e 35 57
e 35 61
e 35 66
e 35 68
e 35 69
e 35 72
e 35 78
e 35 83
e 35 85
e 35 86
e 35 92
e 35 100
e 35 109
e 35 121
e 35 124
e 35 137
e 35 177
e 35 179
e 35 183
e 35 188
e 36 37
e 36 38
e 36 39
e 36 40
e 36 47
e 36 51
e 36 57
e 36 60
e 36 61
e 36 66
e 36 71
e 36 75
e 36 87
e 36 91
e 36 92
e 36 96
e 36 101
e 36 103
e 36 111
e 36 112
e 36 118
e 36 121
e 36 132
e 36 154
e 36 157
e 36 159
e 36 172
e 36 173
e 36 199
e 36 202
e 37 42
e 37 43
e 37 44
e 37 45
e 37 48
e 37 52
e 37 54
e 37 55
e 37 57
e 37 76
e 37 77
e 37 88
e 37 92
e 37 93
e 37 95
e 37 101
e 37 114
e 37 116
e 37 117
e 37 119
e 37 130
e 37 134
e 37 146
e 37 149
e 37 158
e 37 172
e 37 176
e 37 180
e 37 190
e 37 192
e 37 195
e 37 203
e 38 40
e 38 42
e 38 43
e 38 44
e 38 47
e 38 49
e 38 54
e 38 55
e 38 56
e 38 57
e 38 58
e 38 61
e 38 62
e 38 69
e 38 70
e 38 71
e 38 74
e 38 75
e 38 79
e 38 81
e 38 85
e 38 97
e 38 105
e 38 112
e 38 124
e 38 129
e 38 132
e 38 133
e 38 136
e 38 142
e 38 144
e 38 145
e 38 152
e 38 156
e 38 157
e 38 164
e 38 166
e 38 172
e 38 176
e 38 197
e 39 41
e 39 44
e 39 61
e 39 64
e 39 65
e 39 66
e 39 73
e 39 75
e 39 77
e 39 82
e 39 86
e 39 88
e 39 89
e 39 97
e 39 98
e 39 110
e 39 113
e 39 134
e 39 139
e 39 144
e 39 165
e 39 173
e 39 175
e 39 178
e 39 185
e 39 187
e 39 189
e 39 198
e 39 205
e 40 45
e 40 47
e 40 52
e 40 53
e 40 54
e 40 56
e 40 62
e 40 65
e 40 74
e 40 81
e 40 82
e 40 85
e 40 86
e 40 96
e 40 101
e 40 105
e 40 119
e 40 128
e 40 131
e 40 133
e 40 140
e 40 144
e 40 154
e 40 158
e 40 166
e 40 179
e 40 183
e 41 48
e 41 50
e 41 51
e 41 52
e 41 53
e 41 57
e 41 62
e 41 69
e 41 72
e 41 87
e 41 98
e 41 106
e 41 111
e 41 115
e 41 120
e 41 126
e 41 132
e 41 140
e 41 152
e 41 153
e 41 154
e 41 159
e 41 163
e 41 167
e 41 173
e 41 176
e 41 180
e 41 182
e 41 194
e 41 198
e 41 200
e 41 204
e 42 45
e 42 51
e 42 59
e 42 62
e 42 66
e 42 67
e 42 72
e 42 78
e 42 84
e 42 97
e 42 126
e 42 128
e 42 129
e 42 131
e 42 134
e 42 140
e 42 142
e 42 160
e 42 161
e 42 168
e 42 173
e 42 175
e 42 204
e 43 46
e 43 47
e 43 48
e 43 54
e 43 55
e 43 56
e 43 57
e 43 66
e 43 68
e 43 71
e 43 72
e 43 81
e 43 82
e 43 94
e 43 98
e 43 99
e 43 100
e 43 101
e 43 104
e 43 108
e 43 112
e 43 125
e 43 126
e 43 128
e 43 129
e 43 137
e 43 146
e 43 153
e 43 154
e 43 156
e 43 158
e 43 159
e 43 162
e 43 165
e 43 166
e 43 183
e 43 184
e 43 186
e 43 187
e 44 53
e 44 56
e 44 69
e 44 81
e 44 120
e 44 125
e 44 147
e 44 151
e 44 165
e 44 168
e 44 178
e 44 204
e 45 47
e 45 52
e 45 53
e 45 54
e 45 58
e 45 59
e 45 62
e 45 64
e 45 66
e 45 70
e 45 73
e 45 79
e 45 81
e 45 95
e 45 101
e 45 111
e 45 116
e 45 120
e 45 122
e 45 135
e 45 141
e 45 147
e 45 156
e 45 172
e 45 175
e 45 193
e 46 56
e 46 59
e 46 63
e 46 68
e 46 80
e 46 82
e 46 91
e 46 95
e 46 97
e 46 104
e 46 105
e 46 110
e 46 120
e 46 121
e 46 138
e 46 151
e 46 152
e 46 160
e 46 192
e 46 199
e 47 49
e 47 53
e 47 54
e 47 55
e 47 59
e 47 65
e 47 66
e 47 70
e 47 71
e 47 73
e 47 75
e 47 77
e 47 85
e 47 86
e 47 87
e 47 88
e 47 90
e 47 96
e 47 101
e 47 105
e 47 106
e 47 107
e 47 112
e 47 139
e 47 143
e 47 146
e 47 156
e 47 159
e 47 167
e 47 171
e 47 192
e 47 199
e 48 52
e 48 56
e 48 62
e 48 64
e 48 65
e 48 67
e 48 70
e 48 80
e 48 81
e 48 90
e 48 91
e 48 98
e 48 106
e 48 107
e 48 108
e 48 111
e 48 122
e 48 129
e 48 134
e 48 139
e 48 146
e 48 148
e 48 150
e 48 154
e 48 155
e 48 159
e 48 164
e 48 166
e 48 171
e 48 172
e 48 179
e 48 180
e 48 195
e 48 196
e 49 63
e 49 67
e 49 69
e 49 70
e 49 78
e 49 79
e 49 83
e 49 94
e 49 98
e 49 116
e 49 129
e 49 135
e 49 143
e 49 153
e 49 164
e 49 186
e 49 187
e 49 191
e 49 198
e 49 199
e 50 52
e 50 70
e 50 80
e 50 83
e 50 88
e 50 96
e 50 97
e 50 103
e 50 111
e 50 113
e 50 119
e 50 123
e 50 127
e 50 138
e 50 140
e 50 149
e 50 156
e 50 160
e 50 163
e 50 174
e 50 181
e 50 184
e 50 200
e 50 202
e 51 52
e 51 57
e 51 61
e 51 65
e 51 72
e 51 95
e 51 99
e 51 106
e 51 107
e 51 133
e 51 144
e 51 149
e 51 170
e 51 174
e 51 176
e 51 186
e 52 55
e 52 57
e 52 65
e 52 74
e 52 82
e 52 85
e 52 86
e 52 88
e 52 94
e 52 98
e 52 101
e 52 104
e 52 112
e 52 121
e 52 134
e 52 153
e 52 159
e 52 163
e 52 183
e 52 199
e 52 204
e 53 55
e 53 63
e 53 69
e 53 82
e 53 84
e 53 85
e 53 88
e 53 93
e 53 99
e 53 102
e 53 103
e 53 106
e 53 107
e 53 115
e 53 116
e 53 118
e 53 148
e 53 151
e 53 184
e 53 193
e 53 203
e 54 55
e 54 58
e 54 62
e 54 67
e 54 75
e 54 83
e 54 88
e 54 89
e 54 98
e 54 104
e 54 107
e 54 117
e 54 151
e 54 160
e 54 161
e 54 174
e 54 184
e 54 192
e 54 193
e 54 194
e 54 202
e 55 62
e 55 66
e 55 72
e 55 74
e 55 79
e 55 84
e 55 90
e 55 99
e 55 112
e 55 113
e 55 118
e 55 131
e 55 140
e 55 141
e 55 145
e 55 162
e 55 191
e 55 197
e 55 199
e 56 73
e 56 83
e 56 86
e 56 93
e 56 94
e 56 97
e 56 101
e 56 107
e 56 112
e 56 154
e 56 164
e 56 188
e 56 205
e 57 58
e 57 64
e 57 72
e 57 74
e 57 76
e 57 87
e 57 92
e 57 95
e 57 108
e 57 109
e 57 135
e 57 153
e 57 157
e 57 165
e 57 169
e 57 181
e 57 191
e 57 198
e 58 67
e 58 71
e 58 75
e 58 80
e 58 84
e 58 85
e 58 86
e 58 90
e 58 94
e 58 102
e 58 104
e 58 106
e 58 108
e 58 117
e 58 119
e 58 122
e 58 123
e 58 129
e 58 136
e 58 140
e 58 148
e 58 166
e 58 167
e 58 171
e 58 175
e 58 183
e 58 185
e 58 202
e 58 203
e 58 204
e 59 60
e 59 61
e 59 64
e 59 71
e 59 75
e 59 76
e 59 82
e 59 88
e 59 97
e 59 98
e 59 100
e 59 101
e 59 110
e 59 119
e 59 130
e 59 150
e 59 153
e 59 155
e 59 189
e 59 197
e 60 62
e 60 68
e 60 69
e 60 70
e 60 77
e 60 79
e 60 82
e 60 92
e 60 98
e 60 140
e 60 150
e 60 155
e 60 157
e 60 159
e 60 162
e 60 168
e 60 181
e 60 190
e 60 196
e 60 197
e 61 66
e 61 73
e 61 76
e 61 82
e 61 87
e 61 97
e 61 136
e 61 156
e 61 157
e 61 162
e 61 180
e 62 66
e 62 77
e 62 82
e 62 85
e 62 88
e 62 90
e 62 98
e 62 105
e 62 111
e 62 113
e 62 119
e 62 132
e 62 149
e 62 152
e 62 160
e 62 166
e 62 181
e 62 190
e 62 191
e 63 74
e 63 97
e 63 99
e 63 106
e 63 108
e 63 111
e 63 117
e 63 119
e 63 136
e 63 145
e 63 152
e 63 175
e 63 182
e 63 196
e 63 205
e 64 71
e 64 74
e 64 77
e 64 79
e 64 80
e 64 86
e 64 101
e 64 107
e 64 109
e 64 110
e 64 118
e 64 125
e 64 137
e 64 139
e 64 148
e 64 179
e 65 95
e 65 102
e 65 105
e 65 109
e 65 124
e 65 126
e 65 168
e 65 175
e 65 201
e 66 81
e 66 82
e 66 89
e 66 104
e 66 113
e 66 117
e 66 118
e 66 127
e 66 134
e 66 136
e 66 137
e 66 138
e 66 142
e 66 144
e 66 157
e 66 178
e 66 185
e 66 188
e 66 194
e 67 70
e 67 73
e 67 74
e 67 78
e 67 79
e 67 91
e 67 94
e 67 101
e 67 103
e 67 105
e 67 123
e 67 132
e 67 137
e 67 141
e 67 165
e 67 166
e 67 172
e 67 175
e 67 179
e 67 183
e 67 192
e 67 203
e 68 80
e 68 84
e 68 90
e 68 94
e 68 111
e 68 134
e 68 153
e 68 160
e 68 203
e 68 205
e 69 72
e 69 85
e 69 96
e 69 103
e 69 114
e 69 116
e 69 121
e 69 126
e 69 127
e 69 132
e 69 135
e 69 147
e 69 155
e 69 169
e 69 172
e 69 186
e 69 201
e 70 71
e 70 73
e 70 78
e 70 79
e 70 85
e 70 90
e 70 95
e 70 100
e 70 106
e 70 110
e 70 120
e 70 123
e 70 126
e 70 144
e 70 159
e 70 166
e 70 171
e 70 191
e 70 195
e 70 202
e 71 73
e 71 79
e 71 82
e 71 87
e 71 99
e 71 103
e 71 107
e 71 126
e 71 130
e 71 133
e 71 135
e 71 144
e 71 151
e 71 166
e 72 74
e 72 81
e 72 89
e 72 93
e 72 95
e 72 119
e 72 132
e 72 146
e 72 161
e 72 164
e 72 176
e 72 181
e 72 186
e 72 188
e 73 77
e 73 79
e 73 112
e 73 114
e 73 137
e 73 142
e 73 152
e 73 153
e 73 154
e 73 156
e 73 167
e 73 171
e 74 77
e 74 91
e 74 93
e 74 107
e 74 111
e 74 116
e 74 150
e 75 78
e 75 83
e 75 91
e 75 96
e 75 100
e 75 132
e 75 143
e 76 79
e 76 84
e 76 89
e 76 113
e 76 118
e 76 152
e 76 200
e 77 79
e 77 80
e 77 101
e 77 102
e 77 105
e 77 107
e 77 149
e 77 151
e 77 158
e 77 173
e 77 192
e 77 193
e 78 83
e 78 84
e 78 91
e 78 92
e 78 96
e 78 108
e 78 115
e 78 121
e 78 126
e 78 128
e 78 132
e 78 147
e 78 159
e 78 167
e 78 171
e 78 177
e 78 179
e 78 180
e 78 200
e 79 94
e 79 107
e 79 108
e 79 124
e 79 127
e 79 131
e 79 149
e 79 160
e 79 165
e 79 181
e 79 197
e 80 85
e 80 90
e 80 92
e 80 99
e 80 104
e 80 123
e 80 131
e 80 139
e 80 178
e 80 193
e 80 200
e 80 205
e 81 92
e 81 97
e 81 103
e 81 122
e 81 126
e 81 132
e 81 161
e 81 162
e 82 92
e 82 120
e 82 124
e 82 127
e 82 145
e 82 147
e 82 152
e 82 161
e 82 169
e 82 172
e 82 183
e 82 185
e 83 84
e 83 86
e 83 96
e 83 106
e 83 113
e 83 115
e 83 122
e 83 139
e 83 140
e 83 145
e 83 150
e 83 155
e 83 156
e 83 157
e 83 176
e 83 183
e 83 201
e 84 91
e 84 93
e 84 94
e 84 95
e 84 104
e 84 108
e 84 122
e 84 123
e 84 126
e 84 128
e 84 142
e 84 146
e 84 185
e 84 189
e 84 205
e 85 102
e 85 122
e 85 125
e 85 149
e 85 157
e 85 160
e 85 168
e 85 170
e 86 91
e 86 96
e 86 99
e 86 109
e 86 115
e 86 116
e 86 126
e 86 129
e 86 164
e 86 175
e 87 129
e 87 132
e 87 136
e 87 138
e 87 148
e 87 162
e 87 174
e 87 188
e 87 198
e 88 102
e 88 114
e 88 121
e 88 128
e 88 135
e 88 152
e 88 167
e 88 184
e 88 188
e 88 198
e 88 200
e 89 94
e 89 108
e 89 122
e 89 130
e 89 139
e 89 152
e 89 158
e 89 193
e 90 100
e 90 131
e 90 135
e 90 172
e 90 177
e 90 178
e 90 181
e 91 93
e 91 117
e 91 124
e 91 136
e 91 157
e 91 169
e 91 170
e 91 182
e 91 189
e 92 94
e 92 108
e 92 117
e 92 122
e 92 125
e 92 145
e 92 155
e 92 163
e 92 174
e 92 180
e 92 188
e 93 96
e 93 105
e 93 107
e 93 114
e 93 125
e 93 133
e 93 134
e 93 137
e 93 155
e 93 182
e 93 188
e 94 107
e 94 147
e 94 148
e 94 155
e 94 158
e 94 162
e 94 193
e 95 101
e 95 102
e 95 104
e 95 110
e 95 124
e 95 142
e 95 145
e 95 162
e 95 168
e 95 184
e 95 187
e 95 189
e 95 192
e 95 198
e 95 204
e 96 100
e 96 111
e 96 128
e 96 130
e 96 173
e 96 182
e 97 142
e 97 174
e 98 100
e 98 125
e 98 137
e 98 153
e 98 163
e 98 193
e 99 107
e 99 109
e 99 110
e 99 115
e 99 116
e 99 127
e 99 144
e 99 184
e 99 193
e 99 194
e 99 198
e 99 205
e 100 114
e 100 161
e 100 196
e 101 115
e 101 119
e 101 120
e 101 132
e 101 144
e 101 146
e 101 147
e 101 151
e 101 156
e 101 191
e 102 132
e 102 135
e 102 181
e 102 198
e 103 115
e 103 116
e 103 166
e 103 169
e 103 174
e 103 201
e 104 112
e 104 121
e 104 138
e 104 141
e 104 145
e 104 148
e 104 187
e 104 204
e 105 128
e 105 134
e 105 141
e 105 146
e 105 204
e 106 130
e 106 171
e 106 201
e 107 118
e 107 121
e 107 136
e 107 146
e 107 147
e 107 151
e 107 171
e 107 173
e 107 180
e 107 185
e 107 199
e 108 116
e 108 118
e 108 137
e 108 141
e 108 169
e 108 177
e 108 178
e 108 205
e 109 124
e 109 133
e 109 139
e 109 141
e 109 148
e 109 150
e 110 123
e 110 125
e 110 137
e 110 201
e 111 114
e 111 117
e 111 118
e 111 122
e 111 127
e 111 146
e 111 150
e 111 154
e 111 160
e 111 184
e 111 190
e 111 197
e 112 113
e 112 131
e 112 134
e 112 161
e 112 165
e 112 169
e 112 183
e 112 191
e 112 196
e 113 114
e 113 131
e 113 140
e 113 142
e 113 157
e 113 175
e 113 202
e 114 139
e 114 142
e 114 149
e 114 160
e 114 163
e 114 185
e 114 193
e 114 200
e 114 204
e 115 117
e 115 121
e 115 151
e 115 158
e 115 166
e 115 179
e 116 126
e 116 136
e 116 153
e 116 187
e 116 192
e 117 118
e 117 125
e 117 147
e 118 121
e 118 131
e 118 133
e 118 141
e 118 144
e 118 146
e 118 155
e 118 159
e 118 162
e 119 124
e 119 140
e 119 142
e 119 145
e 119 181
e 120 129
e 120 157
e 120 186
e 120 193
e 120 204
e 120 205
e 121 122
e 121 126
e 121 135
e 121 143
e 121 150
e 121 162
e 121 163
e 121 168
e 121 181
e 121 187
e 121 194
e 121 202
e 122 124
e 122 127
e 122 128
e 122 151
e 122 183
e 122 184
e 122 190
e 123 127
e 123 133
e 123 147
e 123 165
e 123 180
e 124 135
e 124 151
e 124 159
e 124 169
e 124 172
e 124 185
e 124 199
e 125 148
e 125 163
e 126 128
e 126 135
e 126 150
e 126 189
e 127 128
e 127 131
e 127 149
e 127 154
e 127 181
e 127 190
e 127 197
e 128 137
e 128 183
e 128 190
e 128 192
e 128 199
e 128 203
e 129 130
e 129 138
e 129 142
e 129 149
e 129 199
e 129 205
e 130 134
e 130 173
e 130 178
e 130 192
e 131 139
e 131 143
e 131 145
e 131 151
e 131 171
e 131 172
e 131 190
e 131 200
e 132 164
e 132 165
e 132 170
e 132 182
e 132 184
e 132 188
e 132 190
e 132 192
e 133 142
e 133 154
e 133 161
e 133 163
e 133 170
e 133 180
e 133 189
e 134 147
e 134 159
e 134 161
e 134 164
e 134 176
e 134 181
e 134 187
e 134 193
e 134 194
e 134 198
e 135 141
e 135 155
e 135 166
e 135 170
e 135 175
e 135 186
e 135 196
e 136 163
e 136 173
e 137 147
e 137 148
e 137 153
e 137 155
e 137 161
e 137 171
e 137 196
e 138 152
e 139 143
e 139 157
e 139 161
e 139 165
e 139 167
e 139 170
e 139 176
e 139 181
e 139 188
e 139 189
e 139 202
e 140 148
e 140 164
e 140 167
e 141 143
e 141 144
e 141 165
e 141 182
e 142 157
e 142 158
e 142 193
e 142 205
e 143 168
e 143 189
e 143 195
e 144 174
e 144 185
e 145 149
e 145 156
e 145 173
e 146 161
e 146 163
e 146 168
e 147 200
e 148 164
e 148 182
e 149 168
e 149 199
e 149 201
e 150 151
e 150 175
e 150 179
e 150 184
e 150 191
e 150 199
e 151 159
e 151 176
e 151 186
e 151 203
e 152 170
e 152 190
e 152 196
e 153 185
e 153 195
e 153 197
e 154 156
e 154 175
e 155 160
e 155 165
e 155 167
e 155 198
e 156 166
e 156 202
e 156 204
e 157 195
e 158 159
e 158 186
e 159 196
e 160 164
e 160 168
e 160 169
e 160 177
e 160 182
e 160 200
e 162 170
e 163 171
e 163 179
e 164 195
e 165 169
e 165 186
e 166 180
e 166 195
e 166 196
e 167 194
e 168 173
e 168 187
e 169 175
e 169 177
e 169 178
e 169 179
e 169 194
e 169 197
e 170 195
e 171 172
e 171 174
e 171 182
e 172 174
e 174 195
e 175 179
e 175 200
e 177 185
e 177 186
e 178 193
e 179 181
e 179 198
e 180 191
e 180 199
e 181 187
e 182 194
e 183 203
e 188 197
e 190 193
e 193 201
e 193 202
e 198 200
e 198 201
e 198 202
e 199 203
e 200 203
